WARNING: for repeatability, setting FPU to use double precision
============================[ Problem Statistics ]=============================
|                                                                             |
|  Number of variables:         23931                                         |
|  Number of clauses:          298759                                         |
|  Parse time:                   0.07 s                                       |
|                                                                             |
c ============================[ Search Statistics ]==============================
c | Conflicts |          ORIGINAL         |          LEARNT          | Progress |
c |           |    Vars  Clauses Literals |    Limit  Clauses Lit/Cl |          |
c ===============================================================================
We had 280 decisions of which only 0 were on extended
We had 2934219 decisions of which only 0.000306726 were on extended
We had 6707315 decisions of which only 0.00605309 were on extended
We had 11147031 decisions of which only 0.031255 were on extended
c Switched to VSIDS.
We had 13759343 decisions of which only 0.0366006 were on extended
We had 15700804 decisions of which only 0.0597103 were on extended
We had 15716672 decisions of which only 0.0598473 were on extended
We had 15730674 decisions of which only 0.0601055 were on extended
We had 15743153 decisions of which only 0.0616395 were on extended
We had 15756074 decisions of which only 0.0634232 were on extended
We had 15768689 decisions of which only 0.0637466 were on extended
We had 15781442 decisions of which only 0.0637965 were on extended
We had 15794207 decisions of which only 0.0637955 were on extended
We had 15806511 decisions of which only 0.0643279 were on extended
We had 15819347 decisions of which only 0.0648573 were on extended
We had 15831253 decisions of which only 0.0658823 were on extended
We had 15843271 decisions of which only 0.0665014 were on extended
We had 15855808 decisions of which only 0.0669029 were on extended
We had 15867847 decisions of which only 0.0689508 were on extended
c Switched to LRB.
Window full
Continue
We had 15881482 decisions of which only 0.0698298 were on extended
c Switched to VSIDS.
We had 15894220 decisions of which only 0.0708056 were on extended
We had 15906359 decisions of which only 0.0710596 were on extended
We had 15918045 decisions of which only 0.0717613 were on extended
We had 15929645 decisions of which only 0.0722301 were on extended
We had 15941736 decisions of which only 0.0725956 were on extended
We had 15953832 decisions of which only 0.0729793 were on extended
We had 15965732 decisions of which only 0.0736703 were on extended
c Switched to LRB.
c Switched to VSIDS.
We had 15978326 decisions of which only 0.0748264 were on extended
We had 15990234 decisions of which only 0.0754773 were on extended
Window full
Continue
We had 16002035 decisions of which only 0.0763215 were on extended
We had 16013886 decisions of which only 0.0773516 were on extended
c Switched to LRB.
We had 16026378 decisions of which only 0.0782585 were on extended
We had 16038199 decisions of which only 0.0790363 were on extended
We had 16051126 decisions of which only 0.0800318 were on extended
We had 16063781 decisions of which only 0.0809212 were on extended
We had 16076515 decisions of which only 0.0814604 were on extended
c Switched to VSIDS.
We had 16088323 decisions of which only 0.0819663 were on extended
We had 16099982 decisions of which only 0.0823169 were on extended
We had 16111649 decisions of which only 0.0828469 were on extended
Window full
Continue
We had 16123712 decisions of which only 0.0834423 were on extended
We had 16135220 decisions of which only 0.0848207 were on extended
c Switched to LRB.
We had 16147619 decisions of which only 0.086056 were on extended
We had 16159566 decisions of which only 0.0870135 were on extended
We had 16171233 decisions of which only 0.0876928 were on extended
We had 16183220 decisions of which only 0.0888142 were on extended
We had 16195030 decisions of which only 0.0896571 were on extended
We had 16207335 decisions of which only 0.0905393 were on extended
c Switched to VSIDS.
We had 16219351 decisions of which only 0.0912244 were on extended
We had 16231305 decisions of which only 0.0918041 were on extended
Window full
Continue
We had 16243102 decisions of which only 0.0926239 were on extended
We had 16255036 decisions of which only 0.0934049 were on extended
We had 16266810 decisions of which only 0.0946406 were on extended
We had 16278742 decisions of which only 0.0957814 were on extended
c Switched to LRB.
We had 16291283 decisions of which only 0.097058 were on extended
We had 16302896 decisions of which only 0.0980317 were on extended
We had 16315091 decisions of which only 0.0987797 were on extended
We had 16326801 decisions of which only 0.0993642 were on extended
We had 16338642 decisions of which only 0.100174 were on extended
We had 16350189 decisions of which only 0.100984 were on extended
Window full
Continue
We had 16361439 decisions of which only 0.101892 were on extended
c Switched to VSIDS.
We had 16373081 decisions of which only 0.102522 were on extended
We had 16384875 decisions of which only 0.102796 were on extended
We had 16396759 decisions of which only 0.103703 were on extended
We had 16408499 decisions of which only 0.104799 were on extended
We had 16419973 decisions of which only 0.105104 were on extended
We had 16431705 decisions of which only 0.106605 were on extended
c Switched to LRB.
We had 16443305 decisions of which only 0.107582 were on extended
We had 16454397 decisions of which only 0.108536 were on extended
We had 16465834 decisions of which only 0.109615 were on extended
Window full
Continue
We had 16477793 decisions of which only 0.110075 were on extended
We had 16489417 decisions of which only 0.11078 were on extended
We had 16501089 decisions of which only 0.111805 were on extended
We had 16512555 decisions of which only 0.113144 were on extended
c Switched to VSIDS.
We had 16524055 decisions of which only 0.114911 were on extended
We had 16535381 decisions of which only 0.116278 were on extended
We had 16546798 decisions of which only 0.117576 were on extended
We had 16558166 decisions of which only 0.119385 were on extended
We had 16569753 decisions of which only 0.120231 were on extended
We had 16581444 decisions of which only 0.121395 were on extended
Window full
Continue
We had 16593207 decisions of which only 0.122424 were on extended
We had 16604821 decisions of which only 0.123741 were on extended
We had 16616177 decisions of which only 0.125197 were on extended
c Switched to LRB.
We had 16628065 decisions of which only 0.126966 were on extended
We had 16640106 decisions of which only 0.127848 were on extended
We had 16651920 decisions of which only 0.12855 were on extended
We had 16663675 decisions of which only 0.129461 were on extended
CAREFUL: the definition is falsified in conflict 856239 at DL 14 (has happened 1 times)
We had 16675008 decisions of which only 0.130417 were on extended
We had 16686191 decisions of which only 0.131911 were on extended
We had 16697929 decisions of which only 0.132903 were on extended
Window full
Continue
We had 16709678 decisions of which only 0.133432 were on extended
We had 16721461 decisions of which only 0.13457 were on extended
We had 16732764 decisions of which only 0.135465 were on extended
c Switched to VSIDS.
We had 16744119 decisions of which only 0.13729 were on extended
We had 16755890 decisions of which only 0.139056 were on extended
We had 16767627 decisions of which only 0.140682 were on extended
We had 16779306 decisions of which only 0.142783 were on extended
We had 16790744 decisions of which only 0.144216 were on extended
We had 16802456 decisions of which only 0.145931 were on extended
We had 16814253 decisions of which only 0.148184 were on extended
Window full
Continue
We had 16825928 decisions of which only 0.150001 were on extended
We had 16837492 decisions of which only 0.152261 were on extended
We had 16849048 decisions of which only 0.154608 were on extended
c Switched to LRB.
We had 16861029 decisions of which only 0.156776 were on extended
We had 16873097 decisions of which only 0.158874 were on extended
We had 16884774 decisions of which only 0.161418 were on extended
We had 16896581 decisions of which only 0.164051 were on extended
We had 16908093 decisions of which only 0.166471 were on extended
We had 16919238 decisions of which only 0.168914 were on extended
We had 16930625 decisions of which only 0.171884 were on extended
Window full
Continue
We had 16941909 decisions of which only 0.175299 were on extended
We had 16953169 decisions of which only 0.177595 were on extended
We had 16964443 decisions of which only 0.179971 were on extended
We had 16975804 decisions of which only 0.183549 were on extended
We had 16987076 decisions of which only 0.186913 were on extended
We had 16998568 decisions of which only 0.189428 were on extended
We had 17009823 decisions of which only 0.193476 were on extended
c Switched to VSIDS.
We had 17021592 decisions of which only 0.196715 were on extended
We had 17033038 decisions of which only 0.197657 were on extended
We had 17044896 decisions of which only 0.199391 were on extended
Window full
Continue
We had 17056550 decisions of which only 0.20143 were on extended
We had 17068285 decisions of which only 0.203822 were on extended
We had 17080031 decisions of which only 0.205011 were on extended
We had 17091514 decisions of which only 0.206717 were on extended
We had 17103098 decisions of which only 0.208787 were on extended
We had 17114358 decisions of which only 0.21125 were on extended
We had 17125845 decisions of which only 0.214681 were on extended
c Switched to LRB.
We had 17138368 decisions of which only 0.217734 were on extended
We had 17150390 decisions of which only 0.221604 were on extended
We had 17162201 decisions of which only 0.225391 were on extended
Window full
Continue
We had 17173909 decisions of which only 0.229732 were on extended
We had 17185361 decisions of which only 0.233588 were on extended
We had 17197203 decisions of which only 0.237655 were on extended
We had 17208844 decisions of which only 0.241934 were on extended
We had 17220386 decisions of which only 0.247526 were on extended
We had 17231705 decisions of which only 0.250596 were on extended
We had 17243062 decisions of which only 0.255755 were on extended
We had 17254797 decisions of which only 0.258363 were on extended
We had 17266230 decisions of which only 0.26198 were on extended
c Switched to VSIDS.
We had 17277506 decisions of which only 0.266086 were on extended
Window full
Continue
We had 17288936 decisions of which only 0.26956 were on extended
We had 17300512 decisions of which only 0.272859 were on extended
We had 17311991 decisions of which only 0.276358 were on extended
We had 17323595 decisions of which only 0.27937 were on extended
We had 17334777 decisions of which only 0.280627 were on extended
We had 17346337 decisions of which only 0.282538 were on extended
We had 17357879 decisions of which only 0.285058 were on extended
We had 17369420 decisions of which only 0.288899 were on extended
We had 17381199 decisions of which only 0.291838 were on extended
We had 17392647 decisions of which only 0.29536 were on extended
Window full
Continue
We had 17404158 decisions of which only 0.2984 were on extended
c Switched to LRB.
We had 17416232 decisions of which only 0.302092 were on extended
We had 17428123 decisions of which only 0.305661 were on extended
We had 17439466 decisions of which only 0.308874 were on extended
We had 17451142 decisions of which only 0.313068 were on extended
We had 17462804 decisions of which only 0.316971 were on extended
We had 17474260 decisions of which only 0.323264 were on extended
We had 17485672 decisions of which only 0.328029 were on extended
We had 17496879 decisions of which only 0.330893 were on extended
We had 17507981 decisions of which only 0.334019 were on extended
Window full
Continue
We had 17518934 decisions of which only 0.339838 were on extended
We had 17530008 decisions of which only 0.34417 were on extended
We had 17541425 decisions of which only 0.349698 were on extended
We had 17553230 decisions of which only 0.356288 were on extended
We had 17564887 decisions of which only 0.361642 were on extended
c Switched to VSIDS.
We had 17576718 decisions of which only 0.366917 were on extended
We had 17588073 decisions of which only 0.369819 were on extended
We had 17599629 decisions of which only 0.373957 were on extended
We had 17611024 decisions of which only 0.378019 were on extended
We had 17622386 decisions of which only 0.381066 were on extended
Window full
Continue
We had 17634109 decisions of which only 0.38573 were on extended
We had 17645629 decisions of which only 0.390153 were on extended
We had 17657013 decisions of which only 0.393657 were on extended
We had 17668568 decisions of which only 0.398448 were on extended
We had 17680182 decisions of which only 0.402207 were on extended
We had 17691536 decisions of which only 0.405267 were on extended
We had 17703680 decisions of which only 0.409587 were on extended
We had 17715105 decisions of which only 0.414601 were on extended
We had 17726550 decisions of which only 0.418378 were on extended
We had 17738025 decisions of which only 0.422347 were on extended
c Switched to LRB.
Window full
Continue
We had 17749704 decisions of which only 0.429055 were on extended
We had 17761489 decisions of which only 0.43806 were on extended
We had 17772861 decisions of which only 0.443198 were on extended
We had 17784581 decisions of which only 0.448484 were on extended
We had 17796129 decisions of which only 0.455301 were on extended
We had 17807311 decisions of which only 0.462692 were on extended
We had 17818615 decisions of which only 0.470211 were on extended
We had 17830347 decisions of which only 0.47648 were on extended
We had 17841726 decisions of which only 0.482834 were on extended
We had 17853149 decisions of which only 0.491448 were on extended
Window full
Continue
We had 17864455 decisions of which only 0.503234 were on extended
We had 17876192 decisions of which only 0.509941 were on extended
We had 17887751 decisions of which only 0.517304 were on extended
We had 17899417 decisions of which only 0.529587 were on extended
We had 17910879 decisions of which only 0.538421 were on extended
We had 17922122 decisions of which only 0.54613 were on extended
We had 17933293 decisions of which only 0.553144 were on extended
We had 17944672 decisions of which only 0.561944 were on extended
We had 17955852 decisions of which only 0.571708 were on extended
c Switched to VSIDS.
We had 17967314 decisions of which only 0.580643 were on extended
Window full
Continue
We had 17978761 decisions of which only 0.586937 were on extended
We had 17990076 decisions of which only 0.594161 were on extended
We had 18001560 decisions of which only 0.602242 were on extended
We had 18013268 decisions of which only 0.609351 were on extended
We had 18024687 decisions of which only 0.612216 were on extended
We had 18035867 decisions of which only 0.617824 were on extended
We had 18046865 decisions of which only 0.623959 were on extended
We had 18058296 decisions of which only 0.62976 were on extended
We had 18069891 decisions of which only 0.635471 were on extended
We had 18081255 decisions of which only 0.641366 were on extended
Window full
Continue
We had 18092365 decisions of which only 0.650285 were on extended
We had 18103538 decisions of which only 0.656181 were on extended
We had 18115038 decisions of which only 0.663289 were on extended
We had 18126408 decisions of which only 0.668704 were on extended
We had 18137696 decisions of which only 0.675461 were on extended
c Switched to LRB.
We had 18149461 decisions of which only 0.683816 were on extended
We had 18160756 decisions of which only 0.694806 were on extended
We had 18171949 decisions of which only 0.706209 were on extended
We had 18183018 decisions of which only 0.717153 were on extended
We had 18194220 decisions of which only 0.728209 were on extended
Window full
Continue
We had 18205528 decisions of which only 0.739374 were on extended
We had 18216799 decisions of which only 0.750659 were on extended
We had 18228241 decisions of which only 0.758724 were on extended
We had 18239444 decisions of which only 0.768691 were on extended
We had 18250527 decisions of which only 0.783583 were on extended
We had 18261495 decisions of which only 0.794376 were on extended
We had 18272586 decisions of which only 0.803537 were on extended
We had 18283661 decisions of which only 0.815881 were on extended
We had 18294910 decisions of which only 0.827547 were on extended
We had 18305960 decisions of which only 0.841125 were on extended
Window full
Continue
We had 18317001 decisions of which only 0.852023 were on extended
We had 18328683 decisions of which only 0.862288 were on extended
c Switched to VSIDS.
We had 18340154 decisions of which only 0.871034 were on extended
We had 18351495 decisions of which only 0.878397 were on extended
We had 18363023 decisions of which only 0.887261 were on extended
We had 18374561 decisions of which only 0.89416 were on extended
We had 18385972 decisions of which only 0.900426 were on extended
We had 18397392 decisions of which only 0.908873 were on extended
We had 18408970 decisions of which only 0.916825 were on extended
We had 18420107 decisions of which only 0.924604 were on extended
Window full
Continue
We had 18431104 decisions of which only 0.934779 were on extended
We had 18442248 decisions of which only 0.942672 were on extended
We had 18453539 decisions of which only 0.953281 were on extended
We had 18464577 decisions of which only 0.957904 were on extended
We had 18475828 decisions of which only 0.967161 were on extended
We had 18486941 decisions of which only 0.974937 were on extended
We had 18498240 decisions of which only 0.983748 were on extended
We had 18509581 decisions of which only 0.993388 were on extended
We had 18521014 decisions of which only 1.00194 were on extended
We had 18532289 decisions of which only 1.01105 were on extended
Window full
Continue
We had 18543319 decisions of which only 1.02277 were on extended
We had 18554415 decisions of which only 1.03337 were on extended
c Switched to LRB.
We had 18565979 decisions of which only 1.04443 were on extended
We had 18577421 decisions of which only 1.05719 were on extended
We had 18588945 decisions of which only 1.06879 were on extended
We had 18600120 decisions of which only 1.08282 were on extended
We had 18611712 decisions of which only 1.10194 were on extended
We had 18623015 decisions of which only 1.11695 were on extended
We had 18634638 decisions of which only 1.13243 were on extended
We had 18645983 decisions of which only 1.15404 were on extended
Window full
Continue
We had 18656993 decisions of which only 1.17127 were on extended
We had 18668156 decisions of which only 1.18744 were on extended
We had 18679678 decisions of which only 1.20578 were on extended
We had 18691102 decisions of which only 1.22254 were on extended
We had 18702721 decisions of which only 1.23708 were on extended
We had 18713973 decisions of which only 1.25502 were on extended
We had 18725335 decisions of which only 1.27149 were on extended
We had 18736794 decisions of which only 1.28732 were on extended
We had 18748137 decisions of which only 1.30611 were on extended
We had 18759512 decisions of which only 1.32365 were on extended
Window full
Continue
We had 18770601 decisions of which only 1.34629 were on extended
We had 18781674 decisions of which only 1.3639 were on extended
We had 18792975 decisions of which only 1.38085 were on extended
We had 18803988 decisions of which only 1.39847 were on extended
c Switched to VSIDS.
We had 18815297 decisions of which only 1.41412 were on extended
We had 18826500 decisions of which only 1.42493 were on extended
We had 18837550 decisions of which only 1.43268 were on extended
We had 18848621 decisions of which only 1.44757 were on extended
We had 18859720 decisions of which only 1.4609 were on extended
We had 18870787 decisions of which only 1.47213 were on extended
Window full
Continue
We had 18882105 decisions of which only 1.48584 were on extended
We had 18893457 decisions of which only 1.49892 were on extended
We had 18904848 decisions of which only 1.5076 were on extended
We had 18915930 decisions of which only 1.51542 were on extended
We had 18927226 decisions of which only 1.52559 were on extended
We had 18938617 decisions of which only 1.53904 were on extended
We had 18949915 decisions of which only 1.55059 were on extended
We had 18961094 decisions of which only 1.56047 were on extended
We had 18972136 decisions of which only 1.57092 were on extended
We had 18983333 decisions of which only 1.58417 were on extended
Window full
Continue
We had 18994474 decisions of which only 1.59514 were on extended
We had 19005670 decisions of which only 1.60934 were on extended
We had 19016771 decisions of which only 1.62351 were on extended
We had 19027920 decisions of which only 1.63418 were on extended
We had 19039223 decisions of which only 1.64751 were on extended
c Switched to LRB.
We had 19050804 decisions of which only 1.66257 were on extended
We had 19062492 decisions of which only 1.68605 were on extended
We had 19073976 decisions of which only 1.70882 were on extended
We had 19085443 decisions of which only 1.72823 were on extended
We had 19096448 decisions of which only 1.74734 were on extended
Window full
Continue
We had 19107764 decisions of which only 1.77273 were on extended
We had 19119067 decisions of which only 1.7915 were on extended
We had 19130459 decisions of which only 1.8143 were on extended
We had 19141855 decisions of which only 1.83498 were on extended
We had 19152867 decisions of which only 1.85866 were on extended
We had 19163887 decisions of which only 1.8801 were on extended
We had 19175216 decisions of which only 1.90519 were on extended
We had 19186470 decisions of which only 1.93038 were on extended
We had 19197858 decisions of which only 1.95505 were on extended
We had 19209082 decisions of which only 1.97742 were on extended
Window full
Continue
We had 19220412 decisions of which only 2.00226 were on extended
We had 19231831 decisions of which only 2.02636 were on extended
We had 19243169 decisions of which only 2.04986 were on extended
c ===============================================================================
restarts                  : 3778
conflicts                 : 3119983        (1540 /sec)
decisions                 : 19254621       (0.00 % random) (9505 /sec)
propagations              : 4810224288     (2374604 /sec)
conflict literals         : 109609213      (56.95 % deleted)

conflicts w/ DIP found    : 1960891        (62.85 % of conflicts)
conflicts w/ dangerous DIP: 14             (0.00 % of conflicts)
conflicts w/ DIP-learning : 87056          (2.79 % of conflicts)
decisions on ext vars     : 399879         (2.08 % of decisions)
total ext vars            : 7255        
tried delete ext vars     : 31          
deleted ext vars          : 31          
max ext vars              : 7224        

Memory used               : 274.00 MB
CPU time                  : 2025.7 s
DIP computation time      : 29.1774 s (1.44 % of total time)
ER_sel time               : 3.17066 s
ER_add time               : 0.026933 s
ER_delC time              : 0 s
ER_delV time              : 0.000833 s
ER_sub time               : 4.33796 s
ER_stat time              : 0 s

UNSATISFIABLE
